(set-logic QF_S)
(declare-fun var0 () String)
(assert (RegexIn var0 (RegexConcat (RegexPlus (RegexStar (Str2Reg "000"))) (RegexConcat (RegexPlus (RegexUnion (Str2Reg "1") (Str2Reg "222"))) (RegexConcat (RegexPlus (RegexPlus (Str2Reg "333"))) (RegexConcat (RegexPlus (RegexUnion (Str2Reg "444") (Str2Reg "5"))) (RegexConcat (RegexUnion (RegexUnion (Str2Reg "66") (Str2Reg "777")) (RegexUnion (Str2Reg "888") (Str2Reg "99"))) (RegexConcat (RegexUnion (RegexUnion (Str2Reg "a") (Str2Reg "b")) (RegexUnion (Str2Reg "ccc") (Str2Reg "dd"))) (RegexConcat (RegexUnion (RegexUnion (Str2Reg "e") (Str2Reg "f")) (RegexUnion (Str2Reg "ggg") (Str2Reg "h"))) (RegexConcat (RegexUnion (RegexPlus (Str2Reg "i")) (RegexPlus (Str2Reg "j"))) (RegexConcat (RegexPlus (RegexStar (Str2Reg "kk"))) (RegexConcat (RegexUnion (RegexPlus (Str2Reg "ll")) (RegexPlus (Str2Reg "mmm"))) (RegexConcat (RegexPlus (RegexPlus (Str2Reg "nn"))) (RegexConcat (RegexUnion (RegexPlus (Str2Reg "o")) (RegexPlus (Str2Reg "ppp"))) (RegexConcat (RegexPlus (RegexStar (Str2Reg "qq"))) (RegexConcat (RegexPlus (RegexStar (Str2Reg "r"))) (RegexConcat (RegexUnion (RegexUnion (Str2Reg "s") (Str2Reg "t")) (RegexUnion (Str2Reg "uu") (Str2Reg "v"))) (RegexConcat (RegexStar (RegexStar (Str2Reg "ww"))) (RegexConcat (RegexStar (RegexPlus (Str2Reg "xxx"))) (RegexConcat (RegexUnion (RegexPlus (Str2Reg "yy")) (RegexPlus (Str2Reg "z"))) (RegexConcat (RegexStar (RegexStar (Str2Reg "AAA"))) (RegexConcat (RegexPlus (RegexUnion (Str2Reg "B") (Str2Reg "C"))) (RegexConcat (RegexStar (RegexPlus (Str2Reg "DD"))) (RegexConcat (RegexUnion (RegexPlus (Str2Reg "EEE")) (RegexPlus (Str2Reg "F"))) (RegexConcat (RegexPlus (RegexUnion (Str2Reg "GGG") (Str2Reg "HHH"))) (RegexConcat (RegexStar (RegexUnion (Str2Reg "II") (Str2Reg "JJJ"))) (RegexConcat (RegexUnion (RegexPlus (Str2Reg "K")) (RegexPlus (Str2Reg "LL"))) (RegexConcat (RegexPlus (RegexPlus (Str2Reg "M"))) (RegexConcat (RegexStar (RegexStar (Str2Reg "NNN"))) (RegexConcat (RegexStar (RegexUnion (Str2Reg "OOO") (Str2Reg "P"))) (RegexConcat (RegexUnion (RegexPlus (Str2Reg "QQ")) (RegexPlus (Str2Reg "RRR"))) (RegexConcat (RegexPlus (RegexUnion (Str2Reg "S") (Str2Reg "T"))) (RegexConcat (RegexUnion (RegexPlus (Str2Reg "UUU")) (RegexPlus (Str2Reg "VV"))) (RegexConcat (RegexPlus (RegexStar (Str2Reg "WW"))) (RegexConcat (RegexUnion (RegexStar (Str2Reg "XXX")) (RegexStar (Str2Reg "Y"))) (RegexConcat (RegexPlus (RegexUnion (Str2Reg "ZZ") (Str2Reg "!!"))) (RegexConcat (RegexPlus (RegexStar (Str2Reg "\"\""))) (RegexConcat (RegexUnion (RegexPlus (Str2Reg "#")) (RegexPlus (Str2Reg "$$$"))) (RegexConcat (RegexStar (RegexPlus (Str2Reg "%"))) (RegexConcat (RegexPlus (RegexPlus (Str2Reg "&"))) (RegexConcat (RegexPlus (RegexUnion (Str2Reg "'''") (Str2Reg "(("))) (RegexConcat (RegexUnion (RegexUnion (Str2Reg "))") (Str2Reg "***")) (RegexUnion (Str2Reg "++") (Str2Reg ","))) (RegexConcat (RegexStar (RegexPlus (Str2Reg "--"))) (RegexConcat (RegexUnion (RegexUnion (Str2Reg "..") (Str2Reg "///")) (RegexUnion (Str2Reg "::") (Str2Reg ";;;"))) (RegexConcat (RegexUnion (RegexStar (Str2Reg "<<<")) (RegexStar (Str2Reg "=="))) (RegexConcat (RegexUnion (RegexPlus (Str2Reg ">")) (RegexPlus (Str2Reg "???"))) (RegexConcat (RegexUnion (RegexStar (Str2Reg "@@")) (RegexStar (Str2Reg "[["))) (RegexConcat (RegexUnion (RegexStar (Str2Reg "\\\\\\")) (RegexStar (Str2Reg "]]"))) (RegexConcat (RegexStar (RegexStar (Str2Reg "^^"))) (RegexConcat (RegexUnion (RegexStar (Str2Reg "___")) (RegexStar (Str2Reg "`"))) (RegexConcat (RegexPlus (RegexUnion (Str2Reg "{{{") (Str2Reg "|"))) (RegexConcat (RegexStar (RegexStar (Str2Reg "}}}"))) (RegexConcat (RegexUnion (RegexStar (Str2Reg "~~")) (RegexStar (Str2Reg "00"))) (RegexConcat (RegexStar (RegexUnion (Str2Reg "111") (Str2Reg "22"))) (RegexConcat (RegexPlus (RegexUnion (Str2Reg "333") (Str2Reg "44"))) (RegexConcat (RegexPlus (RegexPlus (Str2Reg "555"))) (RegexConcat (RegexUnion (RegexPlus (Str2Reg "6")) (RegexPlus (Str2Reg "77"))) (RegexConcat (RegexPlus (RegexStar (Str2Reg "8"))) (RegexConcat (RegexUnion (RegexUnion (Str2Reg "99") (Str2Reg "aaa")) (RegexUnion (Str2Reg "bbb") (Str2Reg "cc"))) (RegexConcat (RegexUnion (RegexPlus (Str2Reg "ddd")) (RegexPlus (Str2Reg "e"))) (RegexConcat (RegexUnion (RegexStar (Str2Reg "f")) (RegexStar (Str2Reg "g"))) (RegexConcat (RegexUnion (RegexStar (Str2Reg "h")) (RegexStar (Str2Reg "ii"))) (RegexConcat (RegexStar (RegexUnion (Str2Reg "jj") (Str2Reg "kkk"))) (RegexConcat (RegexUnion (RegexPlus (Str2Reg "ll")) (RegexPlus (Str2Reg "m"))) (RegexConcat (RegexUnion (RegexStar (Str2Reg "nn")) (RegexStar (Str2Reg "o"))) (RegexConcat (RegexStar (RegexUnion (Str2Reg "pp") (Str2Reg "q"))) (RegexConcat (RegexStar (RegexUnion (Str2Reg "rrr") (Str2Reg "sss"))) (RegexConcat (RegexUnion (RegexPlus (Str2Reg "ttt")) (RegexPlus (Str2Reg "uuu"))) (RegexConcat (RegexPlus (RegexPlus (Str2Reg "v"))) (RegexConcat (RegexStar (RegexStar (Str2Reg "www"))) (RegexConcat (RegexPlus (RegexUnion (Str2Reg "xxx") (Str2Reg "yy"))) (RegexConcat (RegexUnion (RegexPlus (Str2Reg "z")) (RegexPlus (Str2Reg "AA"))) (RegexConcat (RegexStar (RegexStar (Str2Reg "BBB"))) (RegexConcat (RegexStar (RegexUnion (Str2Reg "CCC") (Str2Reg "DDD"))) (RegexConcat (RegexStar (RegexStar (Str2Reg "EEE"))) (RegexConcat (RegexUnion (RegexStar (Str2Reg "F")) (RegexStar (Str2Reg "GGG"))) (RegexConcat (RegexStar (RegexUnion (Str2Reg "HH") (Str2Reg "III"))) (RegexConcat (RegexUnion (RegexPlus (Str2Reg "JJJ")) (RegexPlus (Str2Reg "K"))) (RegexConcat (RegexPlus (RegexUnion (Str2Reg "L") (Str2Reg "M"))) (RegexConcat (RegexPlus (RegexUnion (Str2Reg "NN") (Str2Reg "OOO"))) (RegexConcat (RegexPlus (RegexPlus (Str2Reg "P"))) (RegexConcat (RegexUnion (RegexPlus (Str2Reg "QQQ")) (RegexPlus (Str2Reg "R"))) (RegexConcat (RegexUnion (RegexPlus (Str2Reg "S")) (RegexPlus (Str2Reg "T"))) (RegexConcat (RegexStar (RegexPlus (Str2Reg "UUU"))) (RegexConcat (RegexUnion (RegexPlus (Str2Reg "VV")) (RegexPlus (Str2Reg "W"))) (RegexConcat (RegexStar (RegexPlus (Str2Reg "X"))) (RegexConcat (RegexPlus (RegexStar (Str2Reg "YY"))) (RegexConcat (RegexPlus (RegexStar (Str2Reg "Z"))) (RegexConcat (RegexUnion (RegexPlus (Str2Reg "!!")) (RegexPlus (Str2Reg "\"\"\""))) (RegexConcat (RegexStar (RegexPlus (Str2Reg "##"))) (RegexConcat (RegexPlus (RegexUnion (Str2Reg "$$") (Str2Reg "%%"))) (RegexConcat (RegexStar (RegexPlus (Str2Reg "&&&"))) (RegexConcat (RegexStar (RegexPlus (Str2Reg "''"))) (RegexPlus (RegexUnion (Str2Reg "(") (Str2Reg ")"))))))))))))))))))))))))))))))))))))))))))))))))))))))))))))))))))))))))))))))))))))))))))))))))
(check-sat)